INCAR created by Atomic Simulation Environment
 EDIFF = 1.00e-08
 GGA = PE
 PREC = Accurate
 IBRION = 2
 ISIF = 2
 NSW = 30
 LREAL = A
 LCHARG = .FALSE.
 LWAVE  = .FALSE.
 ALGO = Fast
 NPAR = 4