KPOINTS created by Atomic Simulation Environment
0
Monkhorst-Pack
3 3 3 
0 0 0
