Mg  O 
 1.0000000000000000
     4.2004725253589212    0.0000000000000000    0.0000000000000000
     0.0000000000000000    4.2004725253589212    0.0000000000000000
     0.0000000000000000    0.0000000000000000    4.2004725253589212
   4   4
Cartesian
  0.0000000000000000  0.0000000000000000  0.0000000000000000
  0.0000000000000000  2.1002362626794606  2.1002362626794606
  2.1002362626794606  0.0000000000000000  2.1002362626794606
  2.1002362626794606  2.1002362626794606  0.0000000000000000
  2.1002362626794606  2.1002362626794606  2.1002362626794606
  2.1002362626794606  0.0000000000000000  0.0000000000000000
  0.0000000000000000  2.1002362626794606  0.0000000000000000
  0.0000000000000000  0.0000000000000000  2.1002362626794606
